
Gurobi 12.0.1 (win64, C++) logging started Thu Apr 17 22:36:08 2025

Set parameter Username
Academic license - for non-commercial use only - expires 2026-01-06
Set parameter Threads to value 8
Set parameter LazyConstraints to value 1
Set parameter PreCrush to value 1
Set parameter Seed to value 10
Set parameter Cuts to value -1
Set parameter TimeLimit to value 28800
Set parameter NumericFocus to value 0
Set parameter SolutionLimit to value 10000
Gurobi Optimizer version 12.0.1 build v12.0.1rc0 (win64 - Windows Server 2022.0 (20348.2))

CPU model: AMD EPYC 7513 32-Core Processor, instruction set [SSE2|AVX|AVX2]
Thread count: 18 physical cores, 18 logical processors, using up to 8 threads

Non-default parameters:
SolutionLimit  10000
TimeLimit  28800
PreCrush  1
Seed  10
Threads  8
LazyConstraints  1

Optimize a model with 352 rows, 676 columns and 1950 nonzeros
Model fingerprint: 0xa05f8f65
Variable types: 0 continuous, 676 integer (676 binary)
Coefficient statistics:
  Matrix range     [1e+00, 1e+00]
  Objective range  [5e+00, 9e+01]
  Bounds range     [1e+00, 1e+00]
  RHS range        [1e+00, 8e+00]

User MIP start produced solution with objective 762.37 (0.00s)
Loaded user MIP start with objective 762.37

Presolve removed 40 rows and 104 columns
Presolve time: 0.00s
Presolved: 312 rows, 572 columns, 1641 nonzeros
Variable types: 0 continuous, 572 integer (572 binary)

Root relaxation: objective 4.668467e+02, 92 iterations, 0.00 seconds (0.00 work units)

    Nodes    |    Current Node    |     Objective Bounds      |     Work
 Expl Unexpl |  Obj  Depth IntInf | Incumbent    BestBd   Gap | It/Node Time

     0     0  466.84671    0    -  762.37040  466.84671  38.8%     -    0s
     0     0  492.83241    0   14  762.37040  492.83241  35.4%     -    0s
     0     0  497.87766    0    -  762.37040  497.87766  34.7%     -    0s
     0     0  538.60298    0   30  762.37040  538.60298  29.4%     -    0s
     0     0  539.29662    0   22  762.37040  539.29662  29.3%     -    0s
     0     0  568.06820    0   27  762.37040  568.06820  25.5%     -    0s
     0     0  570.70137    0   28  762.37040  570.70137  25.1%     -    0s
     0     0  587.26028    0   30  762.37040  587.26028  23.0%     -    0s
     0     0  587.26028    0   41  762.37040  587.26028  23.0%     -    0s
     0     0  587.26028    0   20  762.37040  587.26028  23.0%     -    0s
     0     2  591.65371    0   30  762.37040  591.65371  22.4%     -    0s
    85   102  606.74075    9   90  762.37040  601.67161  21.1%   100    5s
   171   196  608.65714   16   84  762.37040  601.67161  21.1%  74.9   10s
H  247   269                     731.7111970  601.67161  17.8%  65.7   11s
H  593   601                     677.8056652  601.67161  11.2%  46.4   13s
* 1286   549              41     630.1275730  603.50219  4.23%  38.6   14s
  1428   573  622.80401   12   43  630.12757  606.50148  3.75%  38.9   15s
  1873   819  628.56582   60  375  630.12757  608.23032  3.48%  41.7   20s
  1885   827  624.43548   13  389  630.12757  609.56484  3.26%  41.4   25s
  2503   976     cutoff   45       630.12757  612.54480  2.79%  49.9   30s
  6827   664  628.85514   34  314  630.12757  624.32818  0.92%  50.2   35s

Cutting planes:
  Gomory: 5
  Clique: 1
  Flow cover: 2
  Inf proof: 1
  Zero half: 6
  Relax-and-lift: 1
  Lazy constraints: 307

Explored 8311 nodes (394719 simplex iterations) in 36.11 seconds (35.64 work units)
Thread count was 8 (of 18 available processors)

Solution count 4: 630.128 677.806 731.711 762.37 

Optimal solution found (tolerance 1.00e-04)
Best objective 6.301275729831e+02, best bound 6.301275729831e+02, gap 0.0000%

User-callback calls 17923, time in user-callback 11.48 sec
### START EXACT APPROACH ###
ProblemVariant: 5
### START PREPROCESSING ###
## Start infeasible path procedure ## 
Deleted arcs: 78
Infeasible tail paths: 0
Infeasible 2-node combinations: 39
## Start extended infeasible path procedure ##
Deleted arcs: 78
Infeasible tail paths: 0
Infeasible 2-node combinations: 39
## Start start solution procedure ##
Start solution with 8 Vehicles and total costs 762.37 in 3.01987 s.
### END PREPROCESSING ###
Route 0 0-2-4-25-10-0 : weight util 0.979167 | volume util 0.547733 | feasible with packing heuristic | feasible with CP model
Route 1 0-3-0 : weight util 0.854167 | volume util 0.046200 | feasible with packing heuristic | feasible with CP model
Route 2 0-9-8-11-12-0 : weight util 1.000000 | volume util 0.538333 | feasible with packing heuristic | feasible with CP model
Route 3 0-16-13-7-1-0 : weight util 1.000000 | volume util 0.578311 | feasible with packing heuristic | feasible with CP model
Route 4 0-17-5-14-0 : weight util 0.958333 | volume util 0.606222 | feasible with packing heuristic | feasible with CP model
Route 5 0-19-15-0 : weight util 0.937500 | volume util 0.334400 | feasible with packing heuristic | feasible with CP model
Route 6 0-23-6-20-21-0 : weight util 0.958333 | volume util 0.536889 | feasible with packing heuristic | feasible with CP model
Route 7 0-24-18-22-0 : weight util 0.958333 | volume util 0.426689 | feasible with packing heuristic | feasible with CP model
